[191, 259, 321, 195, 332, 298, 337, 341, 368, 209, 279, 37, 143, 289, 137, 127, 213, 117, 287, 102, 278, 89, 66, 291, 238, 354, 236, 74, 199, 97, 183, 381, 253, 296, 343, 50, 267, 363, 179, 302, 212, 195, 410, 239, 122, 150, 40, 244, 296, 272, 417, 226, 352, 206, 275, 216, 19, 143, 250, 298, 274, 396, 76, 165, 253, 222, 115, 328, 378, 371, 252, 230, 198, 311, 225, 200, 104, 195, 162, 175, 223, 269, 40, 278, 190, 329, 83, 399, 211, 86, 84, 307, 196, 344, 407, 394, 278, 174, 187, 354]